40	100	100	100
6	2	3
7	4	9
7	5	5
6	4	7
4	9	8
8	7	4
4	9	9
8	9	1
2	9	7
7	1	7
6	9	8
6	3	4
7	5	8
6	9	6
3	2	8
4	7	2
1	9	6
6	9	8
1	4	5
8	6	8
4	4	3
8	1	5
6	3	6
8	3	4
1	7	6
7	8	8
9	2	9
7	8	3
7	3	9
3	2	6
3	7	6
7	2	5
5	5	9
2	2	6
9	7	4
4	4	1
1	7	5
2	3	1
7	2	3
3	4	7
